db/data/29769168513216228033755968051763861.z3.out
-------------------
2500.213781746
